(declare-const |phi___tmp_259_0:404:829:862| Int)
(declare-const __VERIFIER_assert__cond___7 Int)
(declare-const __VERIFIER_assert__cond___3 Int)
(declare-const |K:381:382:817:849:882| Int)
(declare-const |phi___VERIFIER_assert__cond___16:395:838:871| Int)
(declare-const __VERIFIER_assert__cond___18 Int)
(declare-const |havoc:35:66:816:827:859:892| Int)
(declare-const |main____CPAchecker_TMP_0':148:169:176:229:844:877| Int)
(declare-const havoc Int)
(declare-const |havoc:28:64:341:391:826:858:891| Int)
(declare-const |__VERIFIER_assert__cond___18':151:171:178:231:846:879| Int)
(declare-const |phi_main____CPAchecker_TMP_0:402:831:864| Int)
(declare-const |phi___VERIFIER_assert__cond___17:394:839:872| Int)
(declare-const __VERIFIER_assert__cond___15 Int)
(declare-const __VERIFIER_assert__cond___8 Int)
(declare-const |__VERIFIER_assert__cond___8':368:384:819:851:884| Int)
(declare-const __VERIFIER_assert__cond___11 Int)
(declare-const |phi___VERIFIER_assert__cond:401:832:865| Int)
(declare-const |phi___VERIFIER_assert__cond___18:393:840:873| Int)
(declare-const |main__t':147:385:820:852:885| Int)
(declare-const __VERIFIER_assert__cond___4 Int)
(declare-const |__VERIFIER_assert__cond___17':150:168:175:228:843:876| Int)
(declare-const main____CPAchecker_TMP_4 Int)
(declare-const __VERIFIER_assert__cond___0 Int)
(declare-const __VERIFIER_assert__cond___12 Int)
(declare-const |main____CPAchecker_TMP_6':369:386:821:853:886| Int)
(declare-const |havoc:9:63:145:225:233:848:881| Int)
(declare-const __VERIFIER_assert__cond Int)
(declare-const |main__t':147:167:174:227:842:875| Int)
(declare-const main____CPAchecker_TMP_3 Int)
(declare-const |phi___VERIFIER_assert__cond___15:396:837:870| Int)
(declare-const main____CPAchecker_TMP_6 Int)
(declare-const __tmp_383_0 Int)
(declare-const |phi___VERIFIER_assert__cond___11:399:834:867| Int)
(declare-const |phi_main__t:403:830:863| Int)
(declare-const |__VERIFIER_assert__cond___3':365:388:823:855:888| Int)
(declare-const |K:165:166:173:226:841:874| Int)
(declare-const |phi___VERIFIER_assert__cond___0:400:833:866| Int)
(declare-const |phi_main____CPAchecker_TMP_0___0:397:836:869| Int)
(declare-const |main____CPAchecker_TMP_4':364:389:824:856:889| Int)
(declare-const main____CPAchecker_TMP_0___0 Int)
(declare-const |havoc:3:62:860| Int)
(declare-const |__VERIFIER_assert__cond___4':366:387:822:854:887| Int)
(declare-const __VERIFIER_assert__cond___17 Int)
(declare-const |phi___tmp_383_0:405:828:861| Int)
(declare-const |__VERIFIER_assert__cond___7':367:383:818:850:883| Int)
(declare-const |__tmp_383_0':146:170:177:230:845:878| Int)
(declare-const __VERIFIER_assert__cond___16 Int)
(declare-const |main____CPAchecker_TMP_3':363:390:825:857:890| Int)
(declare-const |phi___VERIFIER_assert__cond___12:398:835:868| Int)
(declare-const |main____CPAchecker_TMP_0___0':149:172:179:232:847:880| Int)
(assert (and (<= (+ (- havoc) 1) 0) (not (= (+ (- havoc) 1) 0))
               (or (and (not (= |havoc:3:62:860| 0))
                          (not (= (ite (<= (+ (- havoc) 1) 0) 1 0) 0))
                          (= (+ (- |phi___tmp_383_0:405:828:861|) __tmp_383_0) 0)
                          (= (+ (- |phi___tmp_259_0:404:829:862|)
                                  |havoc:3:62:860|) 0)
                          (= (- |phi_main__t:403:830:863|) 0)
                          (= (+ (- |phi_main____CPAchecker_TMP_0:402:831:864|)
                                  |havoc:3:62:860|) 0)
                          (= (+ (- |phi___VERIFIER_assert__cond:401:832:865|)
                                  1) 0)
                          (= (+ (- |phi___VERIFIER_assert__cond___0:400:833:866|)
                                  (ite (<= (+ (- havoc) 1) 0) 1 0)) 0)
                          (= (+ (- |phi___VERIFIER_assert__cond___11:399:834:867|)
                                  __VERIFIER_assert__cond___11) 0)
                          (= (+ (- |phi___VERIFIER_assert__cond___12:398:835:868|)
                                  __VERIFIER_assert__cond___12) 0)
                          (= (+ (- |phi_main____CPAchecker_TMP_0___0:397:836:869|)
                                  main____CPAchecker_TMP_0___0) 0)
                          (= (+ (- |phi___VERIFIER_assert__cond___15:396:837:870|)
                                  __VERIFIER_assert__cond___15) 0)
                          (= (+ (- |phi___VERIFIER_assert__cond___16:395:838:871|)
                                  __VERIFIER_assert__cond___16) 0)
                          (= (+ (- |phi___VERIFIER_assert__cond___17:394:839:872|)
                                  __VERIFIER_assert__cond___17) 0)
                          (= (+ (- |phi___VERIFIER_assert__cond___18:393:840:873|)
                                  __VERIFIER_assert__cond___18) 0))
                     (and (= |havoc:3:62:860| 0)
                            (not (= (ite (<= (+ (- havoc) 1) 0) 1 0) 0))
                            (or (not (<= (- |K:165:166:173:226:841:874|) 0))
                                  (= (+ |main__t':147:167:174:227:842:875|
                                          (- |K:165:166:173:226:841:874|)) 0))
                            (or (not (and (<= (- |K:165:166:173:226:841:874|) 0)
                                            (<= |K:165:166:173:226:841:874| 0)))
                                  (= (+ |__VERIFIER_assert__cond___17':150:168:175:228:843:876|
                                          (- __VERIFIER_assert__cond___17)) 0))
                            (or (not (<= (+ (- |K:165:166:173:226:841:874|) 1) 0))
                                  (= (+ |__VERIFIER_assert__cond___17':150:168:175:228:843:876|
                                          -1) 0))
                            (or (not (and (<= (- |K:165:166:173:226:841:874|) 0)
                                            (<= |K:165:166:173:226:841:874| 0)))
                                  (= (+ |main____CPAchecker_TMP_0':148:169:176:229:844:877|
                                          (- |havoc:3:62:860|)) 0))
                            (or (not (<= (+ (- |K:165:166:173:226:841:874|) 1) 0))
                                  (= |main____CPAchecker_TMP_0':148:169:176:229:844:877| 0))
                            (or (not (and (<= (- |K:165:166:173:226:841:874|) 0)
                                            (<= |K:165:166:173:226:841:874| 0)))
                                  (= (+ |__tmp_383_0':146:170:177:230:845:878|
                                          (- |havoc:3:62:860|)) 0))
                            (or (not (<= (+ (- |K:165:166:173:226:841:874|) 1) 0))
                                  (= |__tmp_383_0':146:170:177:230:845:878| 0))
                            (or (not (and (<= (- |K:165:166:173:226:841:874|) 0)
                                            (<= |K:165:166:173:226:841:874| 0)))
                                  (= (+ |__VERIFIER_assert__cond___18':151:171:178:231:846:879|
                                          (- __VERIFIER_assert__cond___18)) 0))
                            (or (not (<= (+ (- |K:165:166:173:226:841:874|) 1) 0))
                                  (= (+ |__VERIFIER_assert__cond___18':151:171:178:231:846:879|
                                          -1) 0))
                            (or (not (and (<= (- |K:165:166:173:226:841:874|) 0)
                                            (<= |K:165:166:173:226:841:874| 0)))
                                  (= (+ |main____CPAchecker_TMP_0___0':149:172:179:232:847:880|
                                          (- main____CPAchecker_TMP_0___0)) 0))
                            (or (not (<= (+ (- |K:165:166:173:226:841:874|) 1) 0))
                                  (= |main____CPAchecker_TMP_0___0':149:172:179:232:847:880| 0))
                            (or (and (= |K:165:166:173:226:841:874| 0)
                                       (= (+ (- |__VERIFIER_assert__cond___18':151:171:178:231:846:879|)
                                               __VERIFIER_assert__cond___18) 0)
                                       (= (+ (- |__VERIFIER_assert__cond___17':150:168:175:228:843:876|)
                                               __VERIFIER_assert__cond___17) 0)
                                       (= (+ (- |main____CPAchecker_TMP_0___0':149:172:179:232:847:880|)
                                               main____CPAchecker_TMP_0___0) 0)
                                       (= (+ (- |main____CPAchecker_TMP_0':148:169:176:229:844:877|)
                                               |havoc:3:62:860|) 0)
                                       (= (- |main__t':147:167:174:227:842:875|) 0)
                                       (= (+ (- |__tmp_383_0':146:170:177:230:845:878|)
                                               |havoc:3:62:860|) 0))
                                  (and (<= (+ (- |K:165:166:173:226:841:874|)
                                                1) 0) (= |havoc:3:62:860| 0)
                                         (= |havoc:3:62:860| 0)
                                         (<= (+ (- havoc) 3) 0)
                                         (= (+ |__VERIFIER_assert__cond___18':151:171:178:231:846:879|
                                                 -1) 0)
                                         (= (+ |__VERIFIER_assert__cond___17':150:168:175:228:843:876|
                                                 -1) 0)
                                         (= |main____CPAchecker_TMP_0':148:169:176:229:844:877| 0)
                                         (= |main____CPAchecker_TMP_0___0':149:172:179:232:847:880| 0)
                                         (= |__tmp_383_0':146:170:177:230:845:878| 0)
                                         (<= (+ |main__t':147:167:174:227:842:875|
                                                  (- havoc) 2) 0)
                                         (<= (+ (- |main__t':147:167:174:227:842:875|)
                                                  1) 0)))
                            (<= (- |K:165:166:173:226:841:874|) 0)
                            (= |__tmp_383_0':146:170:177:230:845:878| 0)
                            (= |main____CPAchecker_TMP_0':148:169:176:229:844:877| 0)
                            (<= (- |main__t':147:167:174:227:842:875|) 0)
                            (< (+ (- havoc) 1) 0)
                            (= |__tmp_383_0':146:170:177:230:845:878| 0)
                            (= |main____CPAchecker_TMP_0':148:169:176:229:844:877| 0)
                            (not (= (+ |main__t':147:167:174:227:842:875|
                                         (- havoc) 2) 0))
                            (not (= |havoc:9:63:145:225:233:848:881| 0))
                            (not (= (ite (<= (+ (- |main__t':147:167:174:227:842:875|)
                                                  -1) 0)
                                         1 0) 0))
                            (not (= (ite (<= (+ |main__t':147:167:174:227:842:875|
                                                  (- havoc) 2) 0)
                                         1 0) 0))
                            (= (+ |__tmp_383_0':146:170:177:230:845:878|
                                    (- |phi___tmp_383_0:405:828:861|)) 0)
                            (= (+ |havoc:9:63:145:225:233:848:881|
                                    (- |phi___tmp_259_0:404:829:862|)) 0)
                            (= (+ |main__t':147:167:174:227:842:875|
                                    (- |phi_main__t:403:830:863|) 1) 0)
                            (= (+ |__tmp_383_0':146:170:177:230:845:878|
                                    (- |phi_main____CPAchecker_TMP_0:402:831:864|)) 0)
                            (= (+ __VERIFIER_assert__cond
                                    (- |phi___VERIFIER_assert__cond:401:832:865|)) 0)
                            (= (+ __VERIFIER_assert__cond___0
                                    (- |phi___VERIFIER_assert__cond___0:400:833:866|)) 0)
                            (= (+ (- |phi___VERIFIER_assert__cond___11:399:834:867|)
                                    1) 0)
                            (= (+ (- |phi___VERIFIER_assert__cond___12:398:835:868|)
                                    (ite (<= (+ (- havoc) 1) 0) 1 0)) 0)
                            (= (+ |havoc:9:63:145:225:233:848:881|
                                    (- |phi_main____CPAchecker_TMP_0___0:397:836:869|)) 0)
                            (= (+ (ite (<= (+ (- |main__t':147:167:174:227:842:875|)
                                                -1) 0)
                                       1 0)
                                    (- |phi___VERIFIER_assert__cond___15:396:837:870|)) 0)
                            (= (+ (ite (<= (+ |main__t':147:167:174:227:842:875|
                                                (- havoc) 2) 0)
                                       1 0)
                                    (- |phi___VERIFIER_assert__cond___16:395:838:871|)) 0)
                            (= (+ |__VERIFIER_assert__cond___17':150:168:175:228:843:876|
                                    (- |phi___VERIFIER_assert__cond___17:394:839:872|)) 0)
                            (= (+ |__VERIFIER_assert__cond___18':151:171:178:231:846:879|
                                    (- |phi___VERIFIER_assert__cond___18:393:840:873|)) 0)))
               (or (not (and (<= (- |K:381:382:817:849:882|) 0)
                               (<= |K:381:382:817:849:882| 0)))
                     (= (+ (- __VERIFIER_assert__cond___7)
                             |__VERIFIER_assert__cond___7':367:383:818:850:883|) 0))
               (or (not (<= (+ (- |K:381:382:817:849:882|) 1) 0))
                     (= (+ |__VERIFIER_assert__cond___7':367:383:818:850:883|
                             -1) 0))
               (or (not (and (<= (- |K:381:382:817:849:882|) 0)
                               (<= |K:381:382:817:849:882| 0)))
                     (= (+ (- __VERIFIER_assert__cond___8)
                             |__VERIFIER_assert__cond___8':368:384:819:851:884|) 0))
               (or (not (<= (+ (- |K:381:382:817:849:882|) 1) 0))
                     (= (+ |__VERIFIER_assert__cond___8':368:384:819:851:884|
                             -1) 0))
               (or (not (<= (- |K:381:382:817:849:882|) 0))
                     (<= (+ |main__t':147:385:820:852:885|
                              (* -2 |K:381:382:817:849:882|)
                              (- |phi_main__t:403:830:863|) -1) 0))
               (or (not (<= (- |K:381:382:817:849:882|) 0))
                     (<= (+ |main__t':147:385:820:852:885|
                              (* 2 |K:381:382:817:849:882|)
                              (- |phi_main__t:403:830:863|)
                              (- (* |K:381:382:817:849:882| havoc)) -1) 0))
               (or (not (<= (- |K:381:382:817:849:882|) 0))
                     (<= (+ (- |main__t':147:385:820:852:885|)
                              |K:381:382:817:849:882|
                              |phi_main__t:403:830:863| 1) 0))
               (or (and (= |K:381:382:817:849:882| 0)
                          (= (+ (- |main____CPAchecker_TMP_6':369:386:821:853:886|)
                                  main____CPAchecker_TMP_6) 0)
                          (= (+ __VERIFIER_assert__cond___8
                                  (- |__VERIFIER_assert__cond___8':368:384:819:851:884|)) 0)
                          (= (+ __VERIFIER_assert__cond___7
                                  (- |__VERIFIER_assert__cond___7':367:383:818:850:883|)) 0)
                          (= (+ (- |__VERIFIER_assert__cond___4':366:387:822:854:887|)
                                  __VERIFIER_assert__cond___4) 0)
                          (= (+ (- |__VERIFIER_assert__cond___3':365:388:823:855:888|)
                                  __VERIFIER_assert__cond___3) 0)
                          (= (+ (- |main____CPAchecker_TMP_4':364:389:824:856:889|)
                                  main____CPAchecker_TMP_4) 0)
                          (= (+ (- |main____CPAchecker_TMP_3':363:390:825:857:890|)
                                  main____CPAchecker_TMP_3) 0)
                          (= (+ (- |main__t':147:385:820:852:885|)
                                  |phi_main__t:403:830:863| 1) 0))
                     (and (<= (+ (- |K:381:382:817:849:882|) 1) 0)
                            (<= (+ |phi_main__t:403:830:863| (- havoc) 3) 0)
                            (<= (- |phi_main__t:403:830:863|) 0)
                            (= (+ |__VERIFIER_assert__cond___8':368:384:819:851:884|
                                    -1) 0)
                            (= (+ |__VERIFIER_assert__cond___7':367:383:818:850:883|
                                    -1) 0)
                            (<= (+ |main__t':147:385:820:852:885| (- havoc) 1) 0)
                            (<= (+ (- |main__t':147:385:820:852:885|) 2) 0)))
               (<= (- |K:381:382:817:849:882|) 0)
               (< (- |main__t':147:385:820:852:885|) 0) (< (+ (- havoc) 1) 0)
               (not (= (+ |main__t':147:385:820:852:885| (- havoc) 1) 0))
               (not (= |havoc:28:64:341:391:826:858:891| 0))
               (not (= |havoc:35:66:816:827:859:892| 0))
               (not (= (ite (<= (- |main__t':147:385:820:852:885|) 0) 1 0) 0))
               (not (= (ite (<= (+ |main__t':147:385:820:852:885| (- havoc) 1) 0)
                            1 0) 0))
               (= (+ |main__t':147:385:820:852:885| (- havoc) 2) 0)
               (not (= (ite (<= (+ (- |main__t':147:385:820:852:885|) -1) 0)
                            1 0) 0))
               (= (ite (<= (+ |main__t':147:385:820:852:885| (- havoc) 2) 0)
                       1 0) 0)))
(check-sat)
